p cnf 480 1800
1 -2 0
-1 2 0
1 3 4 0
1 -3 -4 0
-1 3 -4 0
-1 -3 4 0
3 5 6 0
3 -5 -6 0
-3 5 -6 0
-3 -5 6 0
5 7 8 0
5 -7 -8 0
-5 7 -8 0
-5 -7 8 0
7 9 -10 0
7 -9 10 0
-7 9 10 0
-7 -9 -10 0
9 11 12 0
9 -11 -12 0
-9 11 -12 0
-9 -11 12 0
11 13 -14 0
11 -13 14 0
-11 13 14 0
-11 -13 -14 0
13 15 -16 0
13 -15 16 0
-13 15 16 0
-13 -15 -16 0
15 17 18 0
15 -17 -18 0
-15 17 -18 0
-15 -17 18 0
17 19 20 0
17 -19 -20 0
-17 19 -20 0
-17 -19 20 0
19 21 22 0
19 -21 -22 0
-19 21 -22 0
-19 -21 22 0
21 23 -24 0
21 -23 24 0
-21 23 24 0
-21 -23 -24 0
23 25 -26 0
23 -25 26 0
-23 25 26 0
-23 -25 -26 0
25 27 28 0
25 -27 -28 0
-25 27 -28 0
-25 -27 28 0
27 29 30 0
27 -29 -30 0
-27 29 -30 0
-27 -29 30 0
29 31 0
-29 -31 0
2 32 33 0
2 -32 -33 0
-2 32 -33 0
-2 -32 33 0
4 32 34 -35 0
4 32 -34 35 0
4 -32 34 35 0
4 -32 -34 -35 0
-4 32 34 35 0
-4 32 -34 -35 0
-4 -32 34 -35 0
-4 -32 -34 35 0
6 34 36 -37 0
6 34 -36 37 0
6 -34 36 37 0
6 -34 -36 -37 0
-6 34 36 37 0
-6 34 -36 -37 0
-6 -34 36 -37 0
-6 -34 -36 37 0
8 36 38 39 0
8 36 -38 -39 0
8 -36 38 -39 0
8 -36 -38 39 0
-8 36 38 -39 0
-8 36 -38 39 0
-8 -36 38 39 0
-8 -36 -38 -39 0
10 38 40 41 0
10 38 -40 -41 0
10 -38 40 -41 0
10 -38 -40 41 0
-10 38 40 -41 0
-10 38 -40 41 0
-10 -38 40 41 0
-10 -38 -40 -41 0
12 40 42 43 0
12 40 -42 -43 0
12 -40 42 -43 0
12 -40 -42 43 0
-12 40 42 -43 0
-12 40 -42 43 0
-12 -40 42 43 0
-12 -40 -42 -43 0
14 42 44 -45 0
14 42 -44 45 0
14 -42 44 45 0
14 -42 -44 -45 0
-14 42 44 45 0
-14 42 -44 -45 0
-14 -42 44 -45 0
-14 -42 -44 45 0
16 44 46 47 0
16 44 -46 -47 0
16 -44 46 -47 0
16 -44 -46 47 0
-16 44 46 -47 0
-16 44 -46 47 0
-16 -44 46 47 0
-16 -44 -46 -47 0
18 46 48 49 0
18 46 -48 -49 0
18 -46 48 -49 0
18 -46 -48 49 0
-18 46 48 -49 0
-18 46 -48 49 0
-18 -46 48 49 0
-18 -46 -48 -49 0
20 48 50 51 0
20 48 -50 -51 0
20 -48 50 -51 0
20 -48 -50 51 0
-20 48 50 -51 0
-20 48 -50 51 0
-20 -48 50 51 0
-20 -48 -50 -51 0
22 50 52 53 0
22 50 -52 -53 0
22 -50 52 -53 0
22 -50 -52 53 0
-22 50 52 -53 0
-22 50 -52 53 0
-22 -50 52 53 0
-22 -50 -52 -53 0
24 52 54 -55 0
24 52 -54 55 0
24 -52 54 55 0
24 -52 -54 -55 0
-24 52 54 55 0
-24 52 -54 -55 0
-24 -52 54 -55 0
-24 -52 -54 55 0
26 54 56 57 0
26 54 -56 -57 0
26 -54 56 -57 0
26 -54 -56 57 0
-26 54 56 -57 0
-26 54 -56 57 0
-26 -54 56 57 0
-26 -54 -56 -57 0
28 56 58 59 0
28 56 -58 -59 0
28 -56 58 -59 0
28 -56 -58 59 0
-28 56 58 -59 0
-28 56 -58 59 0
-28 -56 58 59 0
-28 -56 -58 -59 0
30 58 60 -61 0
30 58 -60 61 0
30 -58 60 61 0
30 -58 -60 -61 0
-30 58 60 61 0
-30 58 -60 -61 0
-30 -58 60 -61 0
-30 -58 -60 61 0
31 60 -62 0
31 -60 62 0
-31 60 62 0
-31 -60 -62 0
33 63 -64 0
33 -63 64 0
-33 63 64 0
-33 -63 -64 0
35 63 65 -66 0
35 63 -65 66 0
35 -63 65 66 0
35 -63 -65 -66 0
-35 63 65 66 0
-35 63 -65 -66 0
-35 -63 65 -66 0
-35 -63 -65 66 0
37 65 67 68 0
37 65 -67 -68 0
37 -65 67 -68 0
37 -65 -67 68 0
-37 65 67 -68 0
-37 65 -67 68 0
-37 -65 67 68 0
-37 -65 -67 -68 0
39 67 69 -70 0
39 67 -69 70 0
39 -67 69 70 0
39 -67 -69 -70 0
-39 67 69 70 0
-39 67 -69 -70 0
-39 -67 69 -70 0
-39 -67 -69 70 0
41 69 71 72 0
41 69 -71 -72 0
41 -69 71 -72 0
41 -69 -71 72 0
-41 69 71 -72 0
-41 69 -71 72 0
-41 -69 71 72 0
-41 -69 -71 -72 0
43 71 73 74 0
43 71 -73 -74 0
43 -71 73 -74 0
43 -71 -73 74 0
-43 71 73 -74 0
-43 71 -73 74 0
-43 -71 73 74 0
-43 -71 -73 -74 0
45 73 75 76 0
45 73 -75 -76 0
45 -73 75 -76 0
45 -73 -75 76 0
-45 73 75 -76 0
-45 73 -75 76 0
-45 -73 75 76 0
-45 -73 -75 -76 0
47 75 77 -78 0
47 75 -77 78 0
47 -75 77 78 0
47 -75 -77 -78 0
-47 75 77 78 0
-47 75 -77 -78 0
-47 -75 77 -78 0
-47 -75 -77 78 0
49 77 79 80 0
49 77 -79 -80 0
49 -77 79 -80 0
49 -77 -79 80 0
-49 77 79 -80 0
-49 77 -79 80 0
-49 -77 79 80 0
-49 -77 -79 -80 0
51 79 81 82 0
51 79 -81 -82 0
51 -79 81 -82 0
51 -79 -81 82 0
-51 79 81 -82 0
-51 79 -81 82 0
-51 -79 81 82 0
-51 -79 -81 -82 0
53 81 83 -84 0
53 81 -83 84 0
53 -81 83 84 0
53 -81 -83 -84 0
-53 81 83 84 0
-53 81 -83 -84 0
-53 -81 83 -84 0
-53 -81 -83 84 0
55 83 85 86 0
55 83 -85 -86 0
55 -83 85 -86 0
55 -83 -85 86 0
-55 83 85 -86 0
-55 83 -85 86 0
-55 -83 85 86 0
-55 -83 -85 -86 0
57 85 87 88 0
57 85 -87 -88 0
57 -85 87 -88 0
57 -85 -87 88 0
-57 85 87 -88 0
-57 85 -87 88 0
-57 -85 87 88 0
-57 -85 -87 -88 0
59 87 89 90 0
59 87 -89 -90 0
59 -87 89 -90 0
59 -87 -89 90 0
-59 87 89 -90 0
-59 87 -89 90 0
-59 -87 89 90 0
-59 -87 -89 -90 0
61 89 91 -92 0
61 89 -91 92 0
61 -89 91 92 0
61 -89 -91 -92 0
-61 89 91 92 0
-61 89 -91 -92 0
-61 -89 91 -92 0
-61 -89 -91 92 0
62 91 93 0
62 -91 -93 0
-62 91 -93 0
-62 -91 93 0
64 94 -95 0
64 -94 95 0
-64 94 95 0
-64 -94 -95 0
66 94 96 -97 0
66 94 -96 97 0
66 -94 96 97 0
66 -94 -96 -97 0
-66 94 96 97 0
-66 94 -96 -97 0
-66 -94 96 -97 0
-66 -94 -96 97 0
68 96 98 99 0
68 96 -98 -99 0
68 -96 98 -99 0
68 -96 -98 99 0
-68 96 98 -99 0
-68 96 -98 99 0
-68 -96 98 99 0
-68 -96 -98 -99 0
70 98 100 101 0
70 98 -100 -101 0
70 -98 100 -101 0
70 -98 -100 101 0
-70 98 100 -101 0
-70 98 -100 101 0
-70 -98 100 101 0
-70 -98 -100 -101 0
72 100 102 103 0
72 100 -102 -103 0
72 -100 102 -103 0
72 -100 -102 103 0
-72 100 102 -103 0
-72 100 -102 103 0
-72 -100 102 103 0
-72 -100 -102 -103 0
74 102 104 105 0
74 102 -104 -105 0
74 -102 104 -105 0
74 -102 -104 105 0
-74 102 104 -105 0
-74 102 -104 105 0
-74 -102 104 105 0
-74 -102 -104 -105 0
76 104 106 -107 0
76 104 -106 107 0
76 -104 106 107 0
76 -104 -106 -107 0
-76 104 106 107 0
-76 104 -106 -107 0
-76 -104 106 -107 0
-76 -104 -106 107 0
78 106 108 109 0
78 106 -108 -109 0
78 -106 108 -109 0
78 -106 -108 109 0
-78 106 108 -109 0
-78 106 -108 109 0
-78 -106 108 109 0
-78 -106 -108 -109 0
80 108 110 -111 0
80 108 -110 111 0
80 -108 110 111 0
80 -108 -110 -111 0
-80 108 110 111 0
-80 108 -110 -111 0
-80 -108 110 -111 0
-80 -108 -110 111 0
82 110 112 -113 0
82 110 -112 113 0
82 -110 112 113 0
82 -110 -112 -113 0
-82 110 112 113 0
-82 110 -112 -113 0
-82 -110 112 -113 0
-82 -110 -112 113 0
84 112 114 115 0
84 112 -114 -115 0
84 -112 114 -115 0
84 -112 -114 115 0
-84 112 114 -115 0
-84 112 -114 115 0
-84 -112 114 115 0
-84 -112 -114 -115 0
86 114 116 117 0
86 114 -116 -117 0
86 -114 116 -117 0
86 -114 -116 117 0
-86 114 116 -117 0
-86 114 -116 117 0
-86 -114 116 117 0
-86 -114 -116 -117 0
88 116 118 -119 0
88 116 -118 119 0
88 -116 118 119 0
88 -116 -118 -119 0
-88 116 118 119 0
-88 116 -118 -119 0
-88 -116 118 -119 0
-88 -116 -118 119 0
90 118 120 -121 0
90 118 -120 121 0
90 -118 120 121 0
90 -118 -120 -121 0
-90 118 120 121 0
-90 118 -120 -121 0
-90 -118 120 -121 0
-90 -118 -120 121 0
92 120 122 -123 0
92 120 -122 123 0
92 -120 122 123 0
92 -120 -122 -123 0
-92 120 122 123 0
-92 120 -122 -123 0
-92 -120 122 -123 0
-92 -120 -122 123 0
93 122 124 0
93 -122 -124 0
-93 122 -124 0
-93 -122 124 0
95 125 126 0
95 -125 -126 0
-95 125 -126 0
-95 -125 126 0
97 125 127 -128 0
97 125 -127 128 0
97 -125 127 128 0
97 -125 -127 -128 0
-97 125 127 128 0
-97 125 -127 -128 0
-97 -125 127 -128 0
-97 -125 -127 128 0
99 127 129 -130 0
99 127 -129 130 0
99 -127 129 130 0
99 -127 -129 -130 0
-99 127 129 130 0
-99 127 -129 -130 0
-99 -127 129 -130 0
-99 -127 -129 130 0
101 129 131 132 0
101 129 -131 -132 0
101 -129 131 -132 0
101 -129 -131 132 0
-101 129 131 -132 0
-101 129 -131 132 0
-101 -129 131 132 0
-101 -129 -131 -132 0
103 131 133 134 0
103 131 -133 -134 0
103 -131 133 -134 0
103 -131 -133 134 0
-103 131 133 -134 0
-103 131 -133 134 0
-103 -131 133 134 0
-103 -131 -133 -134 0
105 133 135 136 0
105 133 -135 -136 0
105 -133 135 -136 0
105 -133 -135 136 0
-105 133 135 -136 0
-105 133 -135 136 0
-105 -133 135 136 0
-105 -133 -135 -136 0
107 135 137 -138 0
107 135 -137 138 0
107 -135 137 138 0
107 -135 -137 -138 0
-107 135 137 138 0
-107 135 -137 -138 0
-107 -135 137 -138 0
-107 -135 -137 138 0
109 137 139 140 0
109 137 -139 -140 0
109 -137 139 -140 0
109 -137 -139 140 0
-109 137 139 -140 0
-109 137 -139 140 0
-109 -137 139 140 0
-109 -137 -139 -140 0
111 139 141 -142 0
111 139 -141 142 0
111 -139 141 142 0
111 -139 -141 -142 0
-111 139 141 142 0
-111 139 -141 -142 0
-111 -139 141 -142 0
-111 -139 -141 142 0
113 141 143 -144 0
113 141 -143 144 0
113 -141 143 144 0
113 -141 -143 -144 0
-113 141 143 144 0
-113 141 -143 -144 0
-113 -141 143 -144 0
-113 -141 -143 144 0
115 143 145 146 0
115 143 -145 -146 0
115 -143 145 -146 0
115 -143 -145 146 0
-115 143 145 -146 0
-115 143 -145 146 0
-115 -143 145 146 0
-115 -143 -145 -146 0
117 145 147 -148 0
117 145 -147 148 0
117 -145 147 148 0
117 -145 -147 -148 0
-117 145 147 148 0
-117 145 -147 -148 0
-117 -145 147 -148 0
-117 -145 -147 148 0
119 147 149 -150 0
119 147 -149 150 0
119 -147 149 150 0
119 -147 -149 -150 0
-119 147 149 150 0
-119 147 -149 -150 0
-119 -147 149 -150 0
-119 -147 -149 150 0
121 149 151 152 0
121 149 -151 -152 0
121 -149 151 -152 0
121 -149 -151 152 0
-121 149 151 -152 0
-121 149 -151 152 0
-121 -149 151 152 0
-121 -149 -151 -152 0
123 151 153 -154 0
123 151 -153 154 0
123 -151 153 154 0
123 -151 -153 -154 0
-123 151 153 154 0
-123 151 -153 -154 0
-123 -151 153 -154 0
-123 -151 -153 154 0
124 153 -155 0
124 -153 155 0
-124 153 155 0
-124 -153 -155 0
126 156 -157 0
126 -156 157 0
-126 156 157 0
-126 -156 -157 0
128 156 158 -159 0
128 156 -158 159 0
128 -156 158 159 0
128 -156 -158 -159 0
-128 156 158 159 0
-128 156 -158 -159 0
-128 -156 158 -159 0
-128 -156 -158 159 0
130 158 160 161 0
130 158 -160 -161 0
130 -158 160 -161 0
130 -158 -160 161 0
-130 158 160 -161 0
-130 158 -160 161 0
-130 -158 160 161 0
-130 -158 -160 -161 0
132 160 162 163 0
132 160 -162 -163 0
132 -160 162 -163 0
132 -160 -162 163 0
-132 160 162 -163 0
-132 160 -162 163 0
-132 -160 162 163 0
-132 -160 -162 -163 0
134 162 164 -165 0
134 162 -164 165 0
134 -162 164 165 0
134 -162 -164 -165 0
-134 162 164 165 0
-134 162 -164 -165 0
-134 -162 164 -165 0
-134 -162 -164 165 0
136 164 166 167 0
136 164 -166 -167 0
136 -164 166 -167 0
136 -164 -166 167 0
-136 164 166 -167 0
-136 164 -166 167 0
-136 -164 166 167 0
-136 -164 -166 -167 0
138 166 168 -169 0
138 166 -168 169 0
138 -166 168 169 0
138 -166 -168 -169 0
-138 166 168 169 0
-138 166 -168 -169 0
-138 -166 168 -169 0
-138 -166 -168 169 0
140 168 170 -171 0
140 168 -170 171 0
140 -168 170 171 0
140 -168 -170 -171 0
-140 168 170 171 0
-140 168 -170 -171 0
-140 -168 170 -171 0
-140 -168 -170 171 0
142 170 172 173 0
142 170 -172 -173 0
142 -170 172 -173 0
142 -170 -172 173 0
-142 170 172 -173 0
-142 170 -172 173 0
-142 -170 172 173 0
-142 -170 -172 -173 0
144 172 174 -175 0
144 172 -174 175 0
144 -172 174 175 0
144 -172 -174 -175 0
-144 172 174 175 0
-144 172 -174 -175 0
-144 -172 174 -175 0
-144 -172 -174 175 0
146 174 176 177 0
146 174 -176 -177 0
146 -174 176 -177 0
146 -174 -176 177 0
-146 174 176 -177 0
-146 174 -176 177 0
-146 -174 176 177 0
-146 -174 -176 -177 0
148 176 178 179 0
148 176 -178 -179 0
148 -176 178 -179 0
148 -176 -178 179 0
-148 176 178 -179 0
-148 176 -178 179 0
-148 -176 178 179 0
-148 -176 -178 -179 0
150 178 180 -181 0
150 178 -180 181 0
150 -178 180 181 0
150 -178 -180 -181 0
-150 178 180 181 0
-150 178 -180 -181 0
-150 -178 180 -181 0
-150 -178 -180 181 0
152 180 182 183 0
152 180 -182 -183 0
152 -180 182 -183 0
152 -180 -182 183 0
-152 180 182 -183 0
-152 180 -182 183 0
-152 -180 182 183 0
-152 -180 -182 -183 0
154 182 184 185 0
154 182 -184 -185 0
154 -182 184 -185 0
154 -182 -184 185 0
-154 182 184 -185 0
-154 182 -184 185 0
-154 -182 184 185 0
-154 -182 -184 -185 0
155 184 186 0
155 -184 -186 0
-155 184 -186 0
-155 -184 186 0
157 187 -188 0
157 -187 188 0
-157 187 188 0
-157 -187 -188 0
159 187 189 190 0
159 187 -189 -190 0
159 -187 189 -190 0
159 -187 -189 190 0
-159 187 189 -190 0
-159 187 -189 190 0
-159 -187 189 190 0
-159 -187 -189 -190 0
161 189 191 -192 0
161 189 -191 192 0
161 -189 191 192 0
161 -189 -191 -192 0
-161 189 191 192 0
-161 189 -191 -192 0
-161 -189 191 -192 0
-161 -189 -191 192 0
163 191 193 194 0
163 191 -193 -194 0
163 -191 193 -194 0
163 -191 -193 194 0
-163 191 193 -194 0
-163 191 -193 194 0
-163 -191 193 194 0
-163 -191 -193 -194 0
165 193 195 196 0
165 193 -195 -196 0
165 -193 195 -196 0
165 -193 -195 196 0
-165 193 195 -196 0
-165 193 -195 196 0
-165 -193 195 196 0
-165 -193 -195 -196 0
167 195 197 -198 0
167 195 -197 198 0
167 -195 197 198 0
167 -195 -197 -198 0
-167 195 197 198 0
-167 195 -197 -198 0
-167 -195 197 -198 0
-167 -195 -197 198 0
169 197 199 -200 0
169 197 -199 200 0
169 -197 199 200 0
169 -197 -199 -200 0
-169 197 199 200 0
-169 197 -199 -200 0
-169 -197 199 -200 0
-169 -197 -199 200 0
171 199 201 202 0
171 199 -201 -202 0
171 -199 201 -202 0
171 -199 -201 202 0
-171 199 201 -202 0
-171 199 -201 202 0
-171 -199 201 202 0
-171 -199 -201 -202 0
173 201 203 -204 0
173 201 -203 204 0
173 -201 203 204 0
173 -201 -203 -204 0
-173 201 203 204 0
-173 201 -203 -204 0
-173 -201 203 -204 0
-173 -201 -203 204 0
175 203 205 -206 0
175 203 -205 206 0
175 -203 205 206 0
175 -203 -205 -206 0
-175 203 205 206 0
-175 203 -205 -206 0
-175 -203 205 -206 0
-175 -203 -205 206 0
177 205 207 -208 0
177 205 -207 208 0
177 -205 207 208 0
177 -205 -207 -208 0
-177 205 207 208 0
-177 205 -207 -208 0
-177 -205 207 -208 0
-177 -205 -207 208 0
179 207 209 210 0
179 207 -209 -210 0
179 -207 209 -210 0
179 -207 -209 210 0
-179 207 209 -210 0
-179 207 -209 210 0
-179 -207 209 210 0
-179 -207 -209 -210 0
181 209 211 -212 0
181 209 -211 212 0
181 -209 211 212 0
181 -209 -211 -212 0
-181 209 211 212 0
-181 209 -211 -212 0
-181 -209 211 -212 0
-181 -209 -211 212 0
183 211 213 -214 0
183 211 -213 214 0
183 -211 213 214 0
183 -211 -213 -214 0
-183 211 213 214 0
-183 211 -213 -214 0
-183 -211 213 -214 0
-183 -211 -213 214 0
185 213 215 216 0
185 213 -215 -216 0
185 -213 215 -216 0
185 -213 -215 216 0
-185 213 215 -216 0
-185 213 -215 216 0
-185 -213 215 216 0
-185 -213 -215 -216 0
186 215 -217 0
186 -215 217 0
-186 215 217 0
-186 -215 -217 0
188 218 219 0
188 -218 -219 0
-188 218 -219 0
-188 -218 219 0
190 218 220 221 0
190 218 -220 -221 0
190 -218 220 -221 0
190 -218 -220 221 0
-190 218 220 -221 0
-190 218 -220 221 0
-190 -218 220 221 0
-190 -218 -220 -221 0
192 220 222 -223 0
192 220 -222 223 0
192 -220 222 223 0
192 -220 -222 -223 0
-192 220 222 223 0
-192 220 -222 -223 0
-192 -220 222 -223 0
-192 -220 -222 223 0
194 222 224 225 0
194 222 -224 -225 0
194 -222 224 -225 0
194 -222 -224 225 0
-194 222 224 -225 0
-194 222 -224 225 0
-194 -222 224 225 0
-194 -222 -224 -225 0
196 224 226 -227 0
196 224 -226 227 0
196 -224 226 227 0
196 -224 -226 -227 0
-196 224 226 227 0
-196 224 -226 -227 0
-196 -224 226 -227 0
-196 -224 -226 227 0
198 226 228 -229 0
198 226 -228 229 0
198 -226 228 229 0
198 -226 -228 -229 0
-198 226 228 229 0
-198 226 -228 -229 0
-198 -226 228 -229 0
-198 -226 -228 229 0
200 228 230 -231 0
200 228 -230 231 0
200 -228 230 231 0
200 -228 -230 -231 0
-200 228 230 231 0
-200 228 -230 -231 0
-200 -228 230 -231 0
-200 -228 -230 231 0
202 230 232 233 0
202 230 -232 -233 0
202 -230 232 -233 0
202 -230 -232 233 0
-202 230 232 -233 0
-202 230 -232 233 0
-202 -230 232 233 0
-202 -230 -232 -233 0
204 232 234 235 0
204 232 -234 -235 0
204 -232 234 -235 0
204 -232 -234 235 0
-204 232 234 -235 0
-204 232 -234 235 0
-204 -232 234 235 0
-204 -232 -234 -235 0
206 234 236 237 0
206 234 -236 -237 0
206 -234 236 -237 0
206 -234 -236 237 0
-206 234 236 -237 0
-206 234 -236 237 0
-206 -234 236 237 0
-206 -234 -236 -237 0
208 236 238 -239 0
208 236 -238 239 0
208 -236 238 239 0
208 -236 -238 -239 0
-208 236 238 239 0
-208 236 -238 -239 0
-208 -236 238 -239 0
-208 -236 -238 239 0
210 238 240 -241 0
210 238 -240 241 0
210 -238 240 241 0
210 -238 -240 -241 0
-210 238 240 241 0
-210 238 -240 -241 0
-210 -238 240 -241 0
-210 -238 -240 241 0
212 240 242 -243 0
212 240 -242 243 0
212 -240 242 243 0
212 -240 -242 -243 0
-212 240 242 243 0
-212 240 -242 -243 0
-212 -240 242 -243 0
-212 -240 -242 243 0
214 242 244 -245 0
214 242 -244 245 0
214 -242 244 245 0
214 -242 -244 -245 0
-214 242 244 245 0
-214 242 -244 -245 0
-214 -242 244 -245 0
-214 -242 -244 245 0
216 244 246 247 0
216 244 -246 -247 0
216 -244 246 -247 0
216 -244 -246 247 0
-216 244 246 -247 0
-216 244 -246 247 0
-216 -244 246 247 0
-216 -244 -246 -247 0
217 246 248 0
217 -246 -248 0
-217 246 -248 0
-217 -246 248 0
219 249 -250 0
219 -249 250 0
-219 249 250 0
-219 -249 -250 0
221 249 251 -252 0
221 249 -251 252 0
221 -249 251 252 0
221 -249 -251 -252 0
-221 249 251 252 0
-221 249 -251 -252 0
-221 -249 251 -252 0
-221 -249 -251 252 0
223 251 253 -254 0
223 251 -253 254 0
223 -251 253 254 0
223 -251 -253 -254 0
-223 251 253 254 0
-223 251 -253 -254 0
-223 -251 253 -254 0
-223 -251 -253 254 0
225 253 255 256 0
225 253 -255 -256 0
225 -253 255 -256 0
225 -253 -255 256 0
-225 253 255 -256 0
-225 253 -255 256 0
-225 -253 255 256 0
-225 -253 -255 -256 0
227 255 257 -258 0
227 255 -257 258 0
227 -255 257 258 0
227 -255 -257 -258 0
-227 255 257 258 0
-227 255 -257 -258 0
-227 -255 257 -258 0
-227 -255 -257 258 0
229 257 259 -260 0
229 257 -259 260 0
229 -257 259 260 0
229 -257 -259 -260 0
-229 257 259 260 0
-229 257 -259 -260 0
-229 -257 259 -260 0
-229 -257 -259 260 0
231 259 261 -262 0
231 259 -261 262 0
231 -259 261 262 0
231 -259 -261 -262 0
-231 259 261 262 0
-231 259 -261 -262 0
-231 -259 261 -262 0
-231 -259 -261 262 0
233 261 263 -264 0
233 261 -263 264 0
233 -261 263 264 0
233 -261 -263 -264 0
-233 261 263 264 0
-233 261 -263 -264 0
-233 -261 263 -264 0
-233 -261 -263 264 0
235 263 265 -266 0
235 263 -265 266 0
235 -263 265 266 0
235 -263 -265 -266 0
-235 263 265 266 0
-235 263 -265 -266 0
-235 -263 265 -266 0
-235 -263 -265 266 0
237 265 267 268 0
237 265 -267 -268 0
237 -265 267 -268 0
237 -265 -267 268 0
-237 265 267 -268 0
-237 265 -267 268 0
-237 -265 267 268 0
-237 -265 -267 -268 0
239 267 269 270 0
239 267 -269 -270 0
239 -267 269 -270 0
239 -267 -269 270 0
-239 267 269 -270 0
-239 267 -269 270 0
-239 -267 269 270 0
-239 -267 -269 -270 0
241 269 271 -272 0
241 269 -271 272 0
241 -269 271 272 0
241 -269 -271 -272 0
-241 269 271 272 0
-241 269 -271 -272 0
-241 -269 271 -272 0
-241 -269 -271 272 0
243 271 273 -274 0
243 271 -273 274 0
243 -271 273 274 0
243 -271 -273 -274 0
-243 271 273 274 0
-243 271 -273 -274 0
-243 -271 273 -274 0
-243 -271 -273 274 0
245 273 275 -276 0
245 273 -275 276 0
245 -273 275 276 0
245 -273 -275 -276 0
-245 273 275 276 0
-245 273 -275 -276 0
-245 -273 275 -276 0
-245 -273 -275 276 0
247 275 277 -278 0
247 275 -277 278 0
247 -275 277 278 0
247 -275 -277 -278 0
-247 275 277 278 0
-247 275 -277 -278 0
-247 -275 277 -278 0
-247 -275 -277 278 0
248 277 279 0
248 -277 -279 0
-248 277 -279 0
-248 -277 279 0
250 280 -281 0
250 -280 281 0
-250 280 281 0
-250 -280 -281 0
252 280 282 283 0
252 280 -282 -283 0
252 -280 282 -283 0
252 -280 -282 283 0
-252 280 282 -283 0
-252 280 -282 283 0
-252 -280 282 283 0
-252 -280 -282 -283 0
254 282 284 285 0
254 282 -284 -285 0
254 -282 284 -285 0
254 -282 -284 285 0
-254 282 284 -285 0
-254 282 -284 285 0
-254 -282 284 285 0
-254 -282 -284 -285 0
256 284 286 -287 0
256 284 -286 287 0
256 -284 286 287 0
256 -284 -286 -287 0
-256 284 286 287 0
-256 284 -286 -287 0
-256 -284 286 -287 0
-256 -284 -286 287 0
258 286 288 -289 0
258 286 -288 289 0
258 -286 288 289 0
258 -286 -288 -289 0
-258 286 288 289 0
-258 286 -288 -289 0
-258 -286 288 -289 0
-258 -286 -288 289 0
260 288 290 -291 0
260 288 -290 291 0
260 -288 290 291 0
260 -288 -290 -291 0
-260 288 290 291 0
-260 288 -290 -291 0
-260 -288 290 -291 0
-260 -288 -290 291 0
262 290 292 -293 0
262 290 -292 293 0
262 -290 292 293 0
262 -290 -292 -293 0
-262 290 292 293 0
-262 290 -292 -293 0
-262 -290 292 -293 0
-262 -290 -292 293 0
264 292 294 295 0
264 292 -294 -295 0
264 -292 294 -295 0
264 -292 -294 295 0
-264 292 294 -295 0
-264 292 -294 295 0
-264 -292 294 295 0
-264 -292 -294 -295 0
266 294 296 -297 0
266 294 -296 297 0
266 -294 296 297 0
266 -294 -296 -297 0
-266 294 296 297 0
-266 294 -296 -297 0
-266 -294 296 -297 0
-266 -294 -296 297 0
268 296 298 -299 0
268 296 -298 299 0
268 -296 298 299 0
268 -296 -298 -299 0
-268 296 298 299 0
-268 296 -298 -299 0
-268 -296 298 -299 0
-268 -296 -298 299 0
270 298 300 -301 0
270 298 -300 301 0
270 -298 300 301 0
270 -298 -300 -301 0
-270 298 300 301 0
-270 298 -300 -301 0
-270 -298 300 -301 0
-270 -298 -300 301 0
272 300 302 -303 0
272 300 -302 303 0
272 -300 302 303 0
272 -300 -302 -303 0
-272 300 302 303 0
-272 300 -302 -303 0
-272 -300 302 -303 0
-272 -300 -302 303 0
274 302 304 -305 0
274 302 -304 305 0
274 -302 304 305 0
274 -302 -304 -305 0
-274 302 304 305 0
-274 302 -304 -305 0
-274 -302 304 -305 0
-274 -302 -304 305 0
276 304 306 -307 0
276 304 -306 307 0
276 -304 306 307 0
276 -304 -306 -307 0
-276 304 306 307 0
-276 304 -306 -307 0
-276 -304 306 -307 0
-276 -304 -306 307 0
278 306 308 309 0
278 306 -308 -309 0
278 -306 308 -309 0
278 -306 -308 309 0
-278 306 308 -309 0
-278 306 -308 309 0
-278 -306 308 309 0
-278 -306 -308 -309 0
279 308 310 0
279 -308 -310 0
-279 308 -310 0
-279 -308 310 0
281 311 312 0
281 -311 -312 0
-281 311 -312 0
-281 -311 312 0
283 311 313 314 0
283 311 -313 -314 0
283 -311 313 -314 0
283 -311 -313 314 0
-283 311 313 -314 0
-283 311 -313 314 0
-283 -311 313 314 0
-283 -311 -313 -314 0
285 313 315 -316 0
285 313 -315 316 0
285 -313 315 316 0
285 -313 -315 -316 0
-285 313 315 316 0
-285 313 -315 -316 0
-285 -313 315 -316 0
-285 -313 -315 316 0
287 315 317 318 0
287 315 -317 -318 0
287 -315 317 -318 0
287 -315 -317 318 0
-287 315 317 -318 0
-287 315 -317 318 0
-287 -315 317 318 0
-287 -315 -317 -318 0
289 317 319 -320 0
289 317 -319 320 0
289 -317 319 320 0
289 -317 -319 -320 0
-289 317 319 320 0
-289 317 -319 -320 0
-289 -317 319 -320 0
-289 -317 -319 320 0
291 319 321 322 0
291 319 -321 -322 0
291 -319 321 -322 0
291 -319 -321 322 0
-291 319 321 -322 0
-291 319 -321 322 0
-291 -319 321 322 0
-291 -319 -321 -322 0
293 321 323 -324 0
293 321 -323 324 0
293 -321 323 324 0
293 -321 -323 -324 0
-293 321 323 324 0
-293 321 -323 -324 0
-293 -321 323 -324 0
-293 -321 -323 324 0
295 323 325 326 0
295 323 -325 -326 0
295 -323 325 -326 0
295 -323 -325 326 0
-295 323 325 -326 0
-295 323 -325 326 0
-295 -323 325 326 0
-295 -323 -325 -326 0
297 325 327 -328 0
297 325 -327 328 0
297 -325 327 328 0
297 -325 -327 -328 0
-297 325 327 328 0
-297 325 -327 -328 0
-297 -325 327 -328 0
-297 -325 -327 328 0
299 327 329 330 0
299 327 -329 -330 0
299 -327 329 -330 0
299 -327 -329 330 0
-299 327 329 -330 0
-299 327 -329 330 0
-299 -327 329 330 0
-299 -327 -329 -330 0
301 329 331 332 0
301 329 -331 -332 0
301 -329 331 -332 0
301 -329 -331 332 0
-301 329 331 -332 0
-301 329 -331 332 0
-301 -329 331 332 0
-301 -329 -331 -332 0
303 331 333 334 0
303 331 -333 -334 0
303 -331 333 -334 0
303 -331 -333 334 0
-303 331 333 -334 0
-303 331 -333 334 0
-303 -331 333 334 0
-303 -331 -333 -334 0
305 333 335 -336 0
305 333 -335 336 0
305 -333 335 336 0
305 -333 -335 -336 0
-305 333 335 336 0
-305 333 -335 -336 0
-305 -333 335 -336 0
-305 -333 -335 336 0
307 335 337 338 0
307 335 -337 -338 0
307 -335 337 -338 0
307 -335 -337 338 0
-307 335 337 -338 0
-307 335 -337 338 0
-307 -335 337 338 0
-307 -335 -337 -338 0
309 337 339 -340 0
309 337 -339 340 0
309 -337 339 340 0
309 -337 -339 -340 0
-309 337 339 340 0
-309 337 -339 -340 0
-309 -337 339 -340 0
-309 -337 -339 340 0
310 339 341 0
310 -339 -341 0
-310 339 -341 0
-310 -339 341 0
312 342 -343 0
312 -342 343 0
-312 342 343 0
-312 -342 -343 0
314 342 344 345 0
314 342 -344 -345 0
314 -342 344 -345 0
314 -342 -344 345 0
-314 342 344 -345 0
-314 342 -344 345 0
-314 -342 344 345 0
-314 -342 -344 -345 0
316 344 346 -347 0
316 344 -346 347 0
316 -344 346 347 0
316 -344 -346 -347 0
-316 344 346 347 0
-316 344 -346 -347 0
-316 -344 346 -347 0
-316 -344 -346 347 0
318 346 348 349 0
318 346 -348 -349 0
318 -346 348 -349 0
318 -346 -348 349 0
-318 346 348 -349 0
-318 346 -348 349 0
-318 -346 348 349 0
-318 -346 -348 -349 0
320 348 350 -351 0
320 348 -350 351 0
320 -348 350 351 0
320 -348 -350 -351 0
-320 348 350 351 0
-320 348 -350 -351 0
-320 -348 350 -351 0
-320 -348 -350 351 0
322 350 352 353 0
322 350 -352 -353 0
322 -350 352 -353 0
322 -350 -352 353 0
-322 350 352 -353 0
-322 350 -352 353 0
-322 -350 352 353 0
-322 -350 -352 -353 0
324 352 354 -355 0
324 352 -354 355 0
324 -352 354 355 0
324 -352 -354 -355 0
-324 352 354 355 0
-324 352 -354 -355 0
-324 -352 354 -355 0
-324 -352 -354 355 0
326 354 356 357 0
326 354 -356 -357 0
326 -354 356 -357 0
326 -354 -356 357 0
-326 354 356 -357 0
-326 354 -356 357 0
-326 -354 356 357 0
-326 -354 -356 -357 0
328 356 358 -359 0
328 356 -358 359 0
328 -356 358 359 0
328 -356 -358 -359 0
-328 356 358 359 0
-328 356 -358 -359 0
-328 -356 358 -359 0
-328 -356 -358 359 0
330 358 360 361 0
330 358 -360 -361 0
330 -358 360 -361 0
330 -358 -360 361 0
-330 358 360 -361 0
-330 358 -360 361 0
-330 -358 360 361 0
-330 -358 -360 -361 0
332 360 362 363 0
332 360 -362 -363 0
332 -360 362 -363 0
332 -360 -362 363 0
-332 360 362 -363 0
-332 360 -362 363 0
-332 -360 362 363 0
-332 -360 -362 -363 0
334 362 364 365 0
334 362 -364 -365 0
334 -362 364 -365 0
334 -362 -364 365 0
-334 362 364 -365 0
-334 362 -364 365 0
-334 -362 364 365 0
-334 -362 -364 -365 0
336 364 366 367 0
336 364 -366 -367 0
336 -364 366 -367 0
336 -364 -366 367 0
-336 364 366 -367 0
-336 364 -366 367 0
-336 -364 366 367 0
-336 -364 -366 -367 0
338 366 368 -369 0
338 366 -368 369 0
338 -366 368 369 0
338 -366 -368 -369 0
-338 366 368 369 0
-338 366 -368 -369 0
-338 -366 368 -369 0
-338 -366 -368 369 0
340 368 370 -371 0
340 368 -370 371 0
340 -368 370 371 0
340 -368 -370 -371 0
-340 368 370 371 0
-340 368 -370 -371 0
-340 -368 370 -371 0
-340 -368 -370 371 0
341 370 -372 0
341 -370 372 0
-341 370 372 0
-341 -370 -372 0
343 373 -374 0
343 -373 374 0
-343 373 374 0
-343 -373 -374 0
345 373 375 -376 0
345 373 -375 376 0
345 -373 375 376 0
345 -373 -375 -376 0
-345 373 375 376 0
-345 373 -375 -376 0
-345 -373 375 -376 0
-345 -373 -375 376 0
347 375 377 378 0
347 375 -377 -378 0
347 -375 377 -378 0
347 -375 -377 378 0
-347 375 377 -378 0
-347 375 -377 378 0
-347 -375 377 378 0
-347 -375 -377 -378 0
349 377 379 -380 0
349 377 -379 380 0
349 -377 379 380 0
349 -377 -379 -380 0
-349 377 379 380 0
-349 377 -379 -380 0
-349 -377 379 -380 0
-349 -377 -379 380 0
351 379 381 382 0
351 379 -381 -382 0
351 -379 381 -382 0
351 -379 -381 382 0
-351 379 381 -382 0
-351 379 -381 382 0
-351 -379 381 382 0
-351 -379 -381 -382 0
353 381 383 384 0
353 381 -383 -384 0
353 -381 383 -384 0
353 -381 -383 384 0
-353 381 383 -384 0
-353 381 -383 384 0
-353 -381 383 384 0
-353 -381 -383 -384 0
355 383 385 -386 0
355 383 -385 386 0
355 -383 385 386 0
355 -383 -385 -386 0
-355 383 385 386 0
-355 383 -385 -386 0
-355 -383 385 -386 0
-355 -383 -385 386 0
357 385 387 -388 0
357 385 -387 388 0
357 -385 387 388 0
357 -385 -387 -388 0
-357 385 387 388 0
-357 385 -387 -388 0
-357 -385 387 -388 0
-357 -385 -387 388 0
359 387 389 390 0
359 387 -389 -390 0
359 -387 389 -390 0
359 -387 -389 390 0
-359 387 389 -390 0
-359 387 -389 390 0
-359 -387 389 390 0
-359 -387 -389 -390 0
361 389 391 -392 0
361 389 -391 392 0
361 -389 391 392 0
361 -389 -391 -392 0
-361 389 391 392 0
-361 389 -391 -392 0
-361 -389 391 -392 0
-361 -389 -391 392 0
363 391 393 -394 0
363 391 -393 394 0
363 -391 393 394 0
363 -391 -393 -394 0
-363 391 393 394 0
-363 391 -393 -394 0
-363 -391 393 -394 0
-363 -391 -393 394 0
365 393 395 396 0
365 393 -395 -396 0
365 -393 395 -396 0
365 -393 -395 396 0
-365 393 395 -396 0
-365 393 -395 396 0
-365 -393 395 396 0
-365 -393 -395 -396 0
367 395 397 -398 0
367 395 -397 398 0
367 -395 397 398 0
367 -395 -397 -398 0
-367 395 397 398 0
-367 395 -397 -398 0
-367 -395 397 -398 0
-367 -395 -397 398 0
369 397 399 -400 0
369 397 -399 400 0
369 -397 399 400 0
369 -397 -399 -400 0
-369 397 399 400 0
-369 397 -399 -400 0
-369 -397 399 -400 0
-369 -397 -399 400 0
371 399 401 -402 0
371 399 -401 402 0
371 -399 401 402 0
371 -399 -401 -402 0
-371 399 401 402 0
-371 399 -401 -402 0
-371 -399 401 -402 0
-371 -399 -401 402 0
372 401 -403 0
372 -401 403 0
-372 401 403 0
-372 -401 -403 0
374 404 -405 0
374 -404 405 0
-374 404 405 0
-374 -404 -405 0
376 404 406 407 0
376 404 -406 -407 0
376 -404 406 -407 0
376 -404 -406 407 0
-376 404 406 -407 0
-376 404 -406 407 0
-376 -404 406 407 0
-376 -404 -406 -407 0
378 406 408 -409 0
378 406 -408 409 0
378 -406 408 409 0
378 -406 -408 -409 0
-378 406 408 409 0
-378 406 -408 -409 0
-378 -406 408 -409 0
-378 -406 -408 409 0
380 408 410 411 0
380 408 -410 -411 0
380 -408 410 -411 0
380 -408 -410 411 0
-380 408 410 -411 0
-380 408 -410 411 0
-380 -408 410 411 0
-380 -408 -410 -411 0
382 410 412 -413 0
382 410 -412 413 0
382 -410 412 413 0
382 -410 -412 -413 0
-382 410 412 413 0
-382 410 -412 -413 0
-382 -410 412 -413 0
-382 -410 -412 413 0
384 412 414 415 0
384 412 -414 -415 0
384 -412 414 -415 0
384 -412 -414 415 0
-384 412 414 -415 0
-384 412 -414 415 0
-384 -412 414 415 0
-384 -412 -414 -415 0
386 414 416 417 0
386 414 -416 -417 0
386 -414 416 -417 0
386 -414 -416 417 0
-386 414 416 -417 0
-386 414 -416 417 0
-386 -414 416 417 0
-386 -414 -416 -417 0
388 416 418 419 0
388 416 -418 -419 0
388 -416 418 -419 0
388 -416 -418 419 0
-388 416 418 -419 0
-388 416 -418 419 0
-388 -416 418 419 0
-388 -416 -418 -419 0
390 418 420 -421 0
390 418 -420 421 0
390 -418 420 421 0
390 -418 -420 -421 0
-390 418 420 421 0
-390 418 -420 -421 0
-390 -418 420 -421 0
-390 -418 -420 421 0
392 420 422 -423 0
392 420 -422 423 0
392 -420 422 423 0
392 -420 -422 -423 0
-392 420 422 423 0
-392 420 -422 -423 0
-392 -420 422 -423 0
-392 -420 -422 423 0
394 422 424 -425 0
394 422 -424 425 0
394 -422 424 425 0
394 -422 -424 -425 0
-394 422 424 425 0
-394 422 -424 -425 0
-394 -422 424 -425 0
-394 -422 -424 425 0
396 424 426 427 0
396 424 -426 -427 0
396 -424 426 -427 0
396 -424 -426 427 0
-396 424 426 -427 0
-396 424 -426 427 0
-396 -424 426 427 0
-396 -424 -426 -427 0
398 426 428 -429 0
398 426 -428 429 0
398 -426 428 429 0
398 -426 -428 -429 0
-398 426 428 429 0
-398 426 -428 -429 0
-398 -426 428 -429 0
-398 -426 -428 429 0
400 428 430 -431 0
400 428 -430 431 0
400 -428 430 431 0
400 -428 -430 -431 0
-400 428 430 431 0
-400 428 -430 -431 0
-400 -428 430 -431 0
-400 -428 -430 431 0
402 430 432 -433 0
402 430 -432 433 0
402 -430 432 433 0
402 -430 -432 -433 0
-402 430 432 433 0
-402 430 -432 -433 0
-402 -430 432 -433 0
-402 -430 -432 433 0
403 432 -434 0
403 -432 434 0
-403 432 434 0
-403 -432 -434 0
405 435 436 0
405 -435 -436 0
-405 435 -436 0
-405 -435 436 0
407 435 437 -438 0
407 435 -437 438 0
407 -435 437 438 0
407 -435 -437 -438 0
-407 435 437 438 0
-407 435 -437 -438 0
-407 -435 437 -438 0
-407 -435 -437 438 0
409 437 439 440 0
409 437 -439 -440 0
409 -437 439 -440 0
409 -437 -439 440 0
-409 437 439 -440 0
-409 437 -439 440 0
-409 -437 439 440 0
-409 -437 -439 -440 0
411 439 441 -442 0
411 439 -441 442 0
411 -439 441 442 0
411 -439 -441 -442 0
-411 439 441 442 0
-411 439 -441 -442 0
-411 -439 441 -442 0
-411 -439 -441 442 0
413 441 443 -444 0
413 441 -443 444 0
413 -441 443 444 0
413 -441 -443 -444 0
-413 441 443 444 0
-413 441 -443 -444 0
-413 -441 443 -444 0
-413 -441 -443 444 0
415 443 445 446 0
415 443 -445 -446 0
415 -443 445 -446 0
415 -443 -445 446 0
-415 443 445 -446 0
-415 443 -445 446 0
-415 -443 445 446 0
-415 -443 -445 -446 0
417 445 447 448 0
417 445 -447 -448 0
417 -445 447 -448 0
417 -445 -447 448 0
-417 445 447 -448 0
-417 445 -447 448 0
-417 -445 447 448 0
-417 -445 -447 -448 0
419 447 449 450 0
419 447 -449 -450 0
419 -447 449 -450 0
419 -447 -449 450 0
-419 447 449 -450 0
-419 447 -449 450 0
-419 -447 449 450 0
-419 -447 -449 -450 0
421 449 451 452 0
421 449 -451 -452 0
421 -449 451 -452 0
421 -449 -451 452 0
-421 449 451 -452 0
-421 449 -451 452 0
-421 -449 451 452 0
-421 -449 -451 -452 0
423 451 453 -454 0
423 451 -453 454 0
423 -451 453 454 0
423 -451 -453 -454 0
-423 451 453 454 0
-423 451 -453 -454 0
-423 -451 453 -454 0
-423 -451 -453 454 0
425 453 455 456 0
425 453 -455 -456 0
425 -453 455 -456 0
425 -453 -455 456 0
-425 453 455 -456 0
-425 453 -455 456 0
-425 -453 455 456 0
-425 -453 -455 -456 0
427 455 457 458 0
427 455 -457 -458 0
427 -455 457 -458 0
427 -455 -457 458 0
-427 455 457 -458 0
-427 455 -457 458 0
-427 -455 457 458 0
-427 -455 -457 -458 0
429 457 459 460 0
429 457 -459 -460 0
429 -457 459 -460 0
429 -457 -459 460 0
-429 457 459 -460 0
-429 457 -459 460 0
-429 -457 459 460 0
-429 -457 -459 -460 0
431 459 461 462 0
431 459 -461 -462 0
431 -459 461 -462 0
431 -459 -461 462 0
-431 459 461 -462 0
-431 459 -461 462 0
-431 -459 461 462 0
-431 -459 -461 -462 0
433 461 463 464 0
433 461 -463 -464 0
433 -461 463 -464 0
433 -461 -463 464 0
-433 461 463 -464 0
-433 461 -463 464 0
-433 -461 463 464 0
-433 -461 -463 -464 0
434 463 465 0
434 -463 -465 0
-434 463 -465 0
-434 -463 465 0
436 -466 0
-436 466 0
438 466 -467 0
438 -466 467 0
-438 466 467 0
-438 -466 -467 0
440 467 468 0
440 -467 -468 0
-440 467 -468 0
-440 -467 468 0
442 468 469 0
442 -468 -469 0
-442 468 -469 0
-442 -468 469 0
444 469 -470 0
444 -469 470 0
-444 469 470 0
-444 -469 -470 0
446 470 -471 0
446 -470 471 0
-446 470 471 0
-446 -470 -471 0
448 471 472 0
448 -471 -472 0
-448 471 -472 0
-448 -471 472 0
450 472 473 0
450 -472 -473 0
-450 472 -473 0
-450 -472 473 0
452 473 474 0
452 -473 -474 0
-452 473 -474 0
-452 -473 474 0
454 474 -475 0
454 -474 475 0
-454 474 475 0
-454 -474 -475 0
456 475 -476 0
456 -475 476 0
-456 475 476 0
-456 -475 -476 0
458 476 -477 0
458 -476 477 0
-458 476 477 0
-458 -476 -477 0
460 477 -478 0
460 -477 478 0
-460 477 478 0
-460 -477 -478 0
462 478 479 0
462 -478 -479 0
-462 478 -479 0
-462 -478 479 0
464 479 480 0
464 -479 -480 0
-464 479 -480 0
-464 -479 480 0
465 -480 0
-465 480 0
